(declare-sort $$unsorted 0)
(declare-fun tptp.op ($$unsorted $$unsorted) $$unsorted)
(assert (forall ((X0 $$unsorted) (X1 $$unsorted) (X2 $$unsorted) (X3 $$unsorted)) (= (tptp.op X0 X0) (tptp.op (tptp.op (tptp.op X1 X2) X0) X3))))
(assert (not (forall ((X0 $$unsorted) (X1 $$unsorted) (X2 $$unsorted) (X3 $$unsorted)) (= (tptp.op X0 X0) (tptp.op (tptp.op (tptp.op X1 X2) X3) X0)))))
(set-info :filename Equation4103_implies_Equation4112)
(check-sat-assuming ( true ))
